
******************************************************************************
This program contains Ipopt, a library for large-scale nonlinear optimization.
 Ipopt is released as open source code under the Eclipse Public License (EPL).
         For more information visit http://projects.coin-or.org/Ipopt

This version of Ipopt was compiled from source code available at
    https://github.com/IDAES/Ipopt as part of the Institute for the Design of
    Advanced Energy Systems Process Systems Engineering Framework (IDAES PSE
    Framework) Copyright (c) 2018-2019. See https://github.com/IDAES/idaes-pse.

This version of Ipopt was compiled using HSL, a collection of Fortran codes
    for large-scale scientific computation.  All technical papers, sales and
    publicity material resulting from use of the HSL codes within IPOPT must
    contain the following acknowledgement:
        HSL, a collection of Fortran codes for large-scale scientific
        computation. See http://www.hsl.rl.ac.uk.
******************************************************************************

This is Ipopt version 3.13.2, running with linear solver ma27.

Number of nonzeros in equality constraint Jacobian...:      928
Number of nonzeros in inequality constraint Jacobian.:        0
Number of nonzeros in Lagrangian Hessian.............:      806

Total number of variables............................:      403
                     variables with only lower bounds:      124
                variables with lower and upper bounds:      217
                     variables with only upper bounds:        0
Total number of equality constraints.................:      402
Total number of inequality constraints...............:        0
        inequality constraints with only lower bounds:        0
   inequality constraints with lower and upper bounds:        0
        inequality constraints with only upper bounds:        0

iter    objective    inf_pr   inf_du lg(mu)  ||d||  lg(rg) alpha_du alpha_pr  ls
   0  0.0000000e+00 7.94e-01 2.26e-14  -1.0 0.00e+00    -  0.00e+00 0.00e+00   0
   1  5.7793182e-01 2.49e-01 5.55e+02  -1.0 7.24e+04    -  1.96e-01 9.90e-01h  1
   2  5.7857080e-01 2.84e-02 1.97e+02  -1.0 4.48e+03    -  7.94e-01 9.90e-01h  1
   3  5.7999608e-01 6.69e-04 2.66e+03  -1.0 6.37e+02    -  9.63e-01 9.90e-01h  1
   4  5.7963476e-01 6.98e-06 7.14e+02  -1.0 8.48e+01    -  9.90e-01 9.90e-01h  1
   5  5.6440934e-01 3.30e-07 3.58e+06  -1.0 5.21e+03    -  9.86e-01 9.90e-01H  1
   6  5.6436937e-01 3.29e-07 9.86e+10  -1.0 7.50e+03    -  9.90e-01 3.87e-03h  9
   7  5.6432959e-01 3.29e-07 1.98e+11  -1.0 7.57e+03    -  1.00e+00 3.87e-03h  9
   8  5.6429048e-01 3.29e-07 2.98e+11  -1.0 7.54e+03    -  1.00e+00 3.87e-03h  9
   9  5.6425203e-01 3.28e-07 3.97e+11  -1.0 7.51e+03    -  1.00e+00 3.87e-03h  9
iter    objective    inf_pr   inf_du lg(mu)  ||d||  lg(rg) alpha_du alpha_pr  ls
  10  5.6421425e-01 3.28e-07 4.97e+11  -1.0 7.48e+03    -  1.00e+00 3.87e-03h  9
  11  5.6417711e-01 3.27e-07 5.97e+11  -1.0 7.45e+03    -  1.00e+00 3.87e-03h  9
  12  5.6414062e-01 3.27e-07 6.96e+11  -1.0 7.42e+03    -  1.00e+00 3.87e-03h  9
  13  5.6410476e-01 3.26e-07 7.96e+11  -1.0 7.39e+03    -  1.00e+00 3.87e-03h  9
  14  5.6406954e-01 3.26e-07 8.96e+11  -1.0 7.36e+03    -  1.00e+00 3.87e-03h  9
  15  5.6403495e-01 3.25e-07 9.95e+11  -1.0 7.34e+03    -  1.00e+00 3.87e-03h  9
  16  5.7117474e-01 5.04e-05 1.10e+10  -1.0 7.31e+03    -  1.00e+00 9.90e-01w  1
  17  5.7140537e-01 5.10e-07 1.04e+11  -1.0 7.53e+01    -  1.00e+00 9.90e-01w  1
In iteration 17, 31 Slacks too small, adjusting variable bounds
  18  5.7140770e-01 5.10e-09 1.04e+13  -1.0 7.53e-01    -  1.00e+00 9.90e-01h  1
  19  5.7140772e-01 2.77e-11 1.00e-06  -1.0 7.53e-03    -  1.00e+00 1.00e+00h  1
iter    objective    inf_pr   inf_du lg(mu)  ||d||  lg(rg) alpha_du alpha_pr  ls
  20  5.6282828e-01 2.29e-10 4.89e+09  -9.0 5.29e+03    -  1.00e+00 1.00e+00F  1
  21  5.6282803e-01 8.00e-10 2.81e-07  -9.0 2.88e+01    -  1.00e+00 1.00e+00h  1

Number of Iterations....: 21

                                   (scaled)                 (unscaled)
Objective...............:   5.6282802678264532e-01    5.6282802678264532e-01
Dual infeasibility......:   2.8057547751814127e-07    2.8057547751814127e-07
Constraint violation....:   7.9969542099433966e-10    7.9969542099433966e-10
Complementarity.........:   2.9292570037670472e-08    2.9292570037670472e-08
Overall NLP error.......:   4.1489131123132212e-09    2.8057547751814127e-07


Number of objective function evaluations             = 135
Number of objective gradient evaluations             = 22
Number of equality constraint evaluations            = 135
Number of inequality constraint evaluations          = 0
Number of equality constraint Jacobian evaluations   = 22
Number of inequality constraint Jacobian evaluations = 0
Number of Lagrangian Hessian evaluations             = 21
Total CPU secs in IPOPT (w/o function evaluations)   =      0.047
Total CPU secs in NLP function evaluations           =      1.023

EXIT: Optimal Solution Found.
